10
1 0 5
2 0 6
2 1 7
3 0 2
3 1 6
3 2 2
4 0 3
4 1 10
4 2 10
4 3 3
5 0 6
5 1 10
5 2 6
5 3 2
5 4 8
6 0 7
6 1 8
6 2 3
6 3 6
6 4 9
6 5 6
7 0 8
7 1 1
7 2 10
7 3 7
7 4 7
7 5 9
7 6 9
8 0 6
8 1 9
8 2 5
8 3 2
8 4 8
8 5 9
8 6 10
8 7 7
9 0 6
9 1 10
9 2 2
9 3 5
9 4 3
9 5 1
9 6 3
9 7 9
9 8 4
